p cnf 261 306
1 0
-53 -4 0
-53 -5 0
-54 -4 0
-54 5 0
-55 -21 0
-55 -22 0
-56 -23 0
-56 55 0
-57 -24 0
-57 56 0
-58 -25 0
-58 57 0
-59 -26 0
-59 58 0
-60 -27 0
-60 59 0
-61 -28 0
-61 60 0
-62 -29 0
-62 61 0
-63 -30 0
-63 62 0
-64 -31 0
-64 63 0
-65 -32 0
-65 64 0
-66 -33 0
-66 65 0
-67 -34 0
-67 66 0
-68 -35 0
-68 67 0
-69 -36 0
-69 68 0
-70 -37 0
-70 69 0
-71 -38 0
-71 70 0
-72 -39 0
-72 71 0
-73 -40 0
-73 72 0
-74 -41 0
-74 73 0
-75 -42 0
-75 74 0
-76 -43 0
-76 75 0
-77 -44 0
-77 76 0
-78 -45 0
-78 77 0
-79 -46 0
-79 78 0
-80 -47 0
-80 79 0
-81 -48 0
-81 80 0
-82 -49 0
-82 81 0
-83 -50 0
-83 82 0
-84 -51 0
-84 83 0
-85 -52 0
-85 84 0
86 -4 -5 0
87 3 -86 0
88 4 -5 0
89 3 -88 0
90 -2 85 0
91 -87 -90 0
92 -2 -52 0
93 -89 -92 0
94 -2 -51 0
95 -89 -94 0
96 -2 -51 0
97 -87 -96 0
98 -2 -50 0
99 -89 -98 0
100 -2 -49 0
101 -89 -100 0
102 -2 -48 0
103 -89 -102 0
104 -2 -47 0
105 -89 -104 0
106 -2 -47 0
107 -87 -106 0
108 -2 -46 0
109 -89 -108 0
110 -2 -45 0
111 -89 -110 0
112 -2 -44 0
113 -89 -112 0
114 -2 -43 0
115 -89 -114 0
116 -2 -42 0
117 -89 -116 0
118 -2 -41 0
119 -89 -118 0
120 -2 -40 0
121 -89 -120 0
122 -2 -39 0
123 -89 -122 0
124 -2 -38 0
125 -89 -124 0
126 -2 -37 0
127 -89 -126 0
128 -2 -36 0
129 -89 -128 0
130 -2 -35 0
131 -89 -130 0
132 -2 -35 0
133 -87 -132 0
134 -2 -34 0
135 -89 -134 0
136 -2 -33 0
137 -89 -136 0
138 -2 -32 0
139 -89 -138 0
140 -2 -31 0
141 -89 -140 0
142 -2 -30 0
143 -89 -142 0
144 -2 -29 0
145 -89 -144 0
146 -2 -29 0
147 -87 -146 0
148 -2 -28 0
149 -89 -148 0
150 -2 -27 0
151 -89 -150 0
152 -2 -26 0
153 -89 -152 0
154 -2 -25 0
155 -89 -154 0
156 -2 -24 0
157 -89 -156 0
158 -2 -23 0
159 -89 -158 0
160 -2 -22 0
161 -89 -160 0
162 -2 -21 0
163 -89 -162 0
164 -2 -20 0
165 -89 -164 0
166 -2 -19 0
167 -89 -166 0
168 -2 -18 0
169 -89 -168 0
170 -2 -17 0
171 -89 -170 0
172 -2 -16 0
173 -89 -172 0
174 -2 -15 0
175 -89 -174 0
176 -2 -14 0
177 -89 -176 0
178 -2 -13 0
179 -89 -178 0
180 -2 -12 0
181 -89 -180 0
182 -2 -11 0
183 -89 -182 0
184 -2 -10 0
185 -89 -184 0
186 -2 -9 0
187 -89 -186 0
188 -2 -9 0
189 -87 -188 0
190 -2 -8 0
191 -89 -190 0
192 -2 -7 0
193 -89 -192 0
194 -2 -3 0
195 -2 -6 0
196 -89 -195 0
-197 -194 0
-197 -196 0
-198 -193 0
-198 197 0
-199 -191 0
-199 198 0
-200 -189 0
-200 199 0
-201 -187 0
-201 200 0
-202 -185 0
-202 201 0
-203 -183 0
-203 202 0
-204 -181 0
-204 203 0
-205 -179 0
-205 204 0
-206 -177 0
-206 205 0
-207 -175 0
-207 206 0
-208 -173 0
-208 207 0
-209 -171 0
-209 208 0
-210 -169 0
-210 209 0
-211 -167 0
-211 210 0
-212 -165 0
-212 211 0
-213 -163 0
-213 212 0
-214 -161 0
-214 213 0
-215 -159 0
-215 214 0
-216 -157 0
-216 215 0
-217 -155 0
-217 216 0
-218 -153 0
-218 217 0
-219 -151 0
-219 218 0
-220 -149 0
-220 219 0
-221 -147 0
-221 220 0
-222 -145 0
-222 221 0
-223 -143 0
-223 222 0
-224 -141 0
-224 223 0
-225 -139 0
-225 224 0
-226 -137 0
-226 225 0
-227 -135 0
-227 226 0
-228 -133 0
-228 227 0
-229 -131 0
-229 228 0
-230 -129 0
-230 229 0
-231 -127 0
-231 230 0
-232 -125 0
-232 231 0
-233 -123 0
-233 232 0
-234 -121 0
-234 233 0
-235 -119 0
-235 234 0
-236 -117 0
-236 235 0
-237 -115 0
-237 236 0
-238 -113 0
-238 237 0
-239 -111 0
-239 238 0
-240 -109 0
-240 239 0
-241 -107 0
-241 240 0
-242 -105 0
-242 241 0
-243 -103 0
-243 242 0
-244 -101 0
-244 243 0
-245 -99 0
-245 244 0
-246 -97 0
-246 245 0
-247 -95 0
-247 246 0
-248 -93 0
-248 247 0
-249 -91 0
-249 248 0
-250 1 0
-250 249 0
-251 4 0
-251 -5 0
-252 3 0
-252 251 0
-253 3 0
-253 53 0
-254 3 0
-254 54 0
255 253 254 0
256 252 -255 0
-257 2 0
-257 -256 0
258 -1 257 0
-259 1 0
-259 1 0
-260 250 0
-260 259 0
-261 -258 0
-261 260 0
261 0
